
        $ From http://www.csplib.org/Problems/prob009/data/helmut.pdf
        $ Problem number 133
        $ Sequence length : 25
        language ESSENCE' 1.0
        letting sizemaster be 416
        letting sizes be sequence(2,4,7,11,13,24,25,30,35,37,39,40,44,58,62,65,82,104,112,120,128,135,143,153,169)
        